c CNF file corresponding to a (partial) station packing problem.
p cnf 4355 229
1 2 3 4 5 6 7 8 9 10 11 12 13 14 0
-1 -2 0
-1 -3 0
-1 -4 0
-1 -5 0
-1 -6 0
-1 -7 0
-1 -8 0
-1 -9 0
-1 -10 0
-1 -11 0
-1 -12 0
-1 -13 0
-1 -14 0
-2 -3 0
-2 -4 0
-2 -5 0
-2 -6 0
-2 -7 0
-2 -8 0
-2 -9 0
-2 -10 0
-2 -11 0
-2 -12 0
-2 -13 0
-2 -14 0
-3 -4 0
-3 -5 0
-3 -6 0
-3 -7 0
-3 -8 0
-3 -9 0
-3 -10 0
-3 -11 0
-3 -12 0
-3 -13 0
-3 -14 0
-4 -5 0
-4 -6 0
-4 -7 0
-4 -8 0
-4 -9 0
-4 -10 0
-4 -11 0
-4 -12 0
-4 -13 0
-4 -14 0
-5 -6 0
-5 -7 0
-5 -8 0
-5 -9 0
-5 -10 0
-5 -11 0
-5 -12 0
-5 -13 0
-5 -14 0
-6 -7 0
-6 -8 0
-6 -9 0
-6 -10 0
-6 -11 0
-6 -12 0
-6 -13 0
-6 -14 0
-7 -8 0
-7 -9 0
-7 -10 0
-7 -11 0
-7 -12 0
-7 -13 0
-7 -14 0
-8 -9 0
-8 -10 0
-8 -11 0
-8 -12 0
-8 -13 0
-8 -14 0
-9 -10 0
-9 -11 0
-9 -12 0
-9 -13 0
-9 -14 0
-10 -11 0
-10 -12 0
-10 -13 0
-10 -14 0
-11 -12 0
-11 -13 0
-11 -14 0
-12 -13 0
-12 -14 0
-13 -14 0
4339 4340 4341 4342 4343 4344 4345 4346 4347 4348 4349 4350 4351 4352 4353 4354 4355 0
-4339 -4340 0
-4339 -4341 0
-4339 -4342 0
-4339 -4343 0
-4339 -4344 0
-4339 -4345 0
-4339 -4346 0
-4339 -4347 0
-4339 -4348 0
-4339 -4349 0
-4339 -4350 0
-4339 -4351 0
-4339 -4352 0
-4339 -4353 0
-4339 -4354 0
-4339 -4355 0
-4340 -4341 0
-4340 -4342 0
-4340 -4343 0
-4340 -4344 0
-4340 -4345 0
-4340 -4346 0
-4340 -4347 0
-4340 -4348 0
-4340 -4349 0
-4340 -4350 0
-4340 -4351 0
-4340 -4352 0
-4340 -4353 0
-4340 -4354 0
-4340 -4355 0
-4341 -4342 0
-4341 -4343 0
-4341 -4344 0
-4341 -4345 0
-4341 -4346 0
-4341 -4347 0
-4341 -4348 0
-4341 -4349 0
-4341 -4350 0
-4341 -4351 0
-4341 -4352 0
-4341 -4353 0
-4341 -4354 0
-4341 -4355 0
-4342 -4343 0
-4342 -4344 0
-4342 -4345 0
-4342 -4346 0
-4342 -4347 0
-4342 -4348 0
-4342 -4349 0
-4342 -4350 0
-4342 -4351 0
-4342 -4352 0
-4342 -4353 0
-4342 -4354 0
-4342 -4355 0
-4343 -4344 0
-4343 -4345 0
-4343 -4346 0
-4343 -4347 0
-4343 -4348 0
-4343 -4349 0
-4343 -4350 0
-4343 -4351 0
-4343 -4352 0
-4343 -4353 0
-4343 -4354 0
-4343 -4355 0
-4344 -4345 0
-4344 -4346 0
-4344 -4347 0
-4344 -4348 0
-4344 -4349 0
-4344 -4350 0
-4344 -4351 0
-4344 -4352 0
-4344 -4353 0
-4344 -4354 0
-4344 -4355 0
-4345 -4346 0
-4345 -4347 0
-4345 -4348 0
-4345 -4349 0
-4345 -4350 0
-4345 -4351 0
-4345 -4352 0
-4345 -4353 0
-4345 -4354 0
-4345 -4355 0
-4346 -4347 0
-4346 -4348 0
-4346 -4349 0
-4346 -4350 0
-4346 -4351 0
-4346 -4352 0
-4346 -4353 0
-4346 -4354 0
-4346 -4355 0
-4347 -4348 0
-4347 -4349 0
-4347 -4350 0
-4347 -4351 0
-4347 -4352 0
-4347 -4353 0
-4347 -4354 0
-4347 -4355 0
-4348 -4349 0
-4348 -4350 0
-4348 -4351 0
-4348 -4352 0
-4348 -4353 0
-4348 -4354 0
-4348 -4355 0
-4349 -4350 0
-4349 -4351 0
-4349 -4352 0
-4349 -4353 0
-4349 -4354 0
-4349 -4355 0
-4350 -4351 0
-4350 -4352 0
-4350 -4353 0
-4350 -4354 0
-4350 -4355 0
-4351 -4352 0
-4351 -4353 0
-4351 -4354 0
-4351 -4355 0
-4352 -4353 0
-4352 -4354 0
-4352 -4355 0
-4353 -4354 0
-4353 -4355 0
-4354 -4355 0
